unsat
(:added-eqs                       819061
 :arith-eq-adapter                3982
 :arith-bound-propagations-lp     1168
 :arith-conflicts                 2505
 :arith-diseq                     9216
 :arith-fixed-eqs                 47002
 :arith-gcd-calls                 7
 :arith-grobner-calls             381
 :arith-grobner-conflicts         148
 :arith-horner-calls              96
 :arith-horner-conflicts          17
 :arith-horner-cross-nested-forms 33659
 :arith-lower                     255753
 :arith-make-feasible             61531
 :arith-max-columns               8025
 :arith-max-rows                  2881
 :arith-nla-add-bounds            219
 :arith-nla-lemmas                799
 :arith-nla-propagate-bounds      1221
 :arith-nla-propagate-eq          54956
 :arith-nra-calls                 82
 :arith-offset-eqs                233657
 :arith-patches                   7
 :arith-patches-success           7
 :arith-upper                     368076
 :binary-propagations             1254140
 :cnf-encoding-aux-vars           84
 :conflicts                       1039
 :decisions                       1022267
 :del-clause                      2335
 :elim-unconstrained              1187
 :final-checks                    790
 :max-memory                      145.72
 :memory                          103.40
 :minimized-lits                  773
 :mk-bool-var                     21151
 :mk-clause                       6982
 :mk-clause-binary                117292
 :nlsat-conflicts                 74274
 :nlsat-decisions                 438226
 :nlsat-propagations              1697949
 :nlsat-restarts                  3
 :nlsat-stages                    513281
 :num-allocs                      24088695970.00
 :num-checks                      2
 :propagations                    1396822
 :restarts                        8
 :rlimit-count                    25710890
 :solve-eqs-elim-vars             703
 :solve-eqs-steps                 3675
 :time                            20.85
 :total-time                      20.88)
